0 73.0
1 70.0
2 72.0
3 62.0
4 73.0
5 66.0
6 68.0
7 69.0
8 71.0
9 67.0
10 68.0
11 63.0
12 71.0
13 64.0
14 75.0
15 70.0
16 65.0
17 67.0
18 76.0
19 68.0
20 72.0
21 70.0
22 65.0
23 71.0
24 68.0
25 65.0
26 71.0
27 61.0
28 72.0
29 65.0
30 67.0
31 68.0
32 74.0
33 63.0
34 71.0
35 59.0
36 66.0
37 63.0
38 70.0
39 62.0
40 60.0
41 55.0
42 71.0
43 67.0
44 67.0
45 62.0
46 60.0
47 59.0
48 65.0
49 66.0
50 67.0
51 63.0
52 68.0
53 63.0
54 69.0
55 70.0
56 71.0
57 60.0
58 72.0
59 60.0
60 72.0
61 70.0
62 72.0
63 63.0
64 68.0
65 61.0
66 69.0
67 66.0
68 69.0
69 59.0
70 64.0
71 57.0
72 77.0
73 70.0
74 76.0
75 71.0
76 73.0
77 75.0
78 73.0
79 70.0
80 76.0
81 68.0
82 69.0
83 64.0
84 77.0
85 75.0
86 81.0
87 72.0
88 76.0
89 69.0
90 71.0
91 72.0
92 67.0
93 65.0
94 69.0
95 66.0
96 66.0
97 58.0
98 61.0
99 59.0
100 57.0
101 63.0
102 62.0
103 58.0
104 61.0
105 56.0
106 53.0
107 52.0
108 58.0
109 55.0
110 62.0
111 52.0
112 60.0
113 53.0
114 55.0
115 56.0
116 51.0
117 49.0
118 57.0
119 54.0
120 66.0
121 63.0
122 65.0
123 55.0
124 66.0
125 59.0
126 63.0
127 64.0
128 66.0
129 62.0
130 63.0
131 58.0
132 71.0
133 64.0
134 75.0
135 70.0
136 65.0
137 67.0
138 60.0
139 52.0
140 56.0
141 54.0
142 49.0
143 55.0
144 63.0
145 60.0
146 71.0
147 61.0
148 56.0
149 49.0
150 69.0
151 54.0
152 65.0
153 57.0
154 62.0
155 69.0
156 68.0
157 54.0
158 56.0
159 56.0
160 46.0
161 60.0
162 57.0
163 58.0
164 69.0
165 72.0
166 62.0
167 64.0
168 58.0
169 59.0
170 67.0
171 63.0
172 52.0
173 47.0
174 67.0
175 52.0
176 60.0
177 52.0
178 61.0
179 68.0
180 70.0
181 59.0
182 54.0
183 55.0
184 50.0
185 62.0
186 51.0
187 55.0
188 67.0
189 67.0
190 62.0
191 58.0
192 70.0
193 63.0
194 71.0
195 66.0
196 57.0
197 59.0
198 61.0
199 47.0
200 55.0
201 55.0
202 48.0
203 62.0
204 65.0
205 54.0
206 58.0
207 59.0
208 53.0
209 65.0
210 48.0
211 51.0
212 55.0
213 63.0
214 57.0
215 62.0
216 59.0
217 51.0
218 56.0
219 54.0
220 57.0
221 63.0
222 66.0
223 67.0
224 72.0
225 75.0
226 64.0
227 66.0
228 62.0
229 66.0
230 71.0
231 71.0
232 69.0
233 65.0
234 64.0
235 67.0
236 55.0
237 63.0
238 61.0
239 66.0
240 72.0
241 69.0
242 75.0
243 65.0
244 76.0
245 69.0
246 68.0
247 69.0
248 75.0
249 64.0
250 72.0
251 60.0
252 76.0
253 73.0
254 80.0
255 72.0
256 70.0
257 65.0
258 65.0
259 61.0
260 61.0
261 56.0
262 54.0
263 53.0
264 74.0
265 71.0
266 82.0
267 72.0
268 67.0
269 60.0
270 75.0
271 60.0
272 71.0
273 63.0
274 68.0
275 75.0
276 78.0
277 64.0
278 66.0
279 66.0
280 56.0
281 70.0
282 67.0
283 68.0
284 79.0
285 82.0
286 72.0
287 74.0
288 73.0
289 74.0
290 81.0
291 70.0
292 66.0
293 54.0
294 78.0
295 63.0
296 70.0
297 62.0
298 71.0
299 78.0
300 85.0
301 66.0
302 69.0
303 69.0
304 58.0
305 77.0
306 66.0
307 62.0
308 82.0
309 81.0
310 70.0
311 73.0
312 77.0
313 74.0
314 77.0
315 69.0
316 63.0
317 58.0
318 72.0
319 58.0
320 61.0
321 61.0
322 58.0
323 72.0
324 76.0
325 57.0
326 65.0
327 65.0
328 57.0
329 76.0
330 55.0
331 50.0
332 66.0
333 69.0
334 61.0
335 69.0
336 66.0
337 62.0
338 62.0
339 57.0
340 63.0
341 62.0
342 77.0
343 78.0
344 78.0
345 81.0
346 74.0
347 76.0
348 73.0
349 69.0
350 78.0
351 77.0
352 73.0
353 76.0
354 71.0
355 66.0
356 66.0
357 69.0
358 65.0
359 73.0
360 65.0
361 66.0
362 67.0
363 63.0
364 68.0
365 63.0
366 64.0
367 65.0
368 66.0
369 55.0
370 67.0
371 55.0
372 73.0
373 71.0
374 73.0
375 64.0
376 69.0
377 62.0
378 58.0
379 55.0
380 58.0
381 48.0
382 53.0
383 46.0
384 63.0
385 64.0
386 72.0
387 68.0
388 57.0
389 52.0
390 69.0
391 54.0
392 62.0
393 54.0
394 63.0
395 70.0
396 71.0
397 60.0
398 55.0
399 56.0
400 51.0
401 63.0
402 56.0
403 60.0
404 72.0
405 72.0
406 67.0
407 63.0
408 67.0
409 68.0
410 75.0
411 64.0
412 60.0
413 48.0
414 74.0
415 59.0
416 66.0
417 58.0
418 67.0
419 74.0
420 76.0
421 57.0
422 60.0
423 60.0
424 49.0
425 68.0
426 61.0
427 57.0
428 77.0
429 76.0
430 65.0
431 68.0
432 77.0
433 75.0
434 76.0
435 67.0
436 65.0
437 58.0
438 70.0
439 59.0
440 60.0
441 61.0
442 58.0
443 70.0
444 70.0
445 51.0
446 61.0
447 61.0
448 52.0
449 71.0
450 57.0
451 49.0
452 66.0
453 68.0
454 59.0
455 69.0
456 58.0
457 55.0
458 57.0
459 47.0
460 61.0
461 54.0
462 67.0
463 71.0
464 73.0
465 73.0
466 70.0
467 66.0
468 67.0
469 63.0
470 74.0
471 73.0
472 64.0
473 67.0
474 69.0
475 61.0
476 62.0
477 64.0
478 55.0
479 65.0
480 88.0
481 81.0
482 87.0
483 82.0
484 84.0
485 86.0
486 83.0
487 80.0
488 86.0
489 78.0
490 79.0
491 74.0
492 84.0
493 82.0
494 88.0
495 79.0
496 83.0
497 76.0
498 74.0
499 75.0
500 70.0
501 68.0
502 72.0
503 69.0
504 81.0
505 74.0
506 82.0
507 77.0
508 68.0
509 70.0
510 78.0
511 64.0
512 72.0
513 72.0
514 65.0
515 79.0
516 77.0
517 66.0
518 70.0
519 71.0
520 65.0
521 77.0
522 67.0
523 70.0
524 74.0
525 82.0
526 76.0
527 81.0
528 77.0
529 74.0
530 77.0
531 69.0
532 63.0
533 58.0
534 79.0
535 65.0
536 68.0
537 68.0
538 65.0
539 79.0
540 82.0
541 63.0
542 71.0
543 71.0
544 63.0
545 82.0
546 64.0
547 59.0
548 75.0
549 78.0
550 70.0
551 78.0
552 83.0
553 81.0
554 82.0
555 73.0
556 71.0
557 64.0
558 81.0
559 70.0
560 71.0
561 72.0
562 69.0
563 81.0
564 85.0
565 66.0
566 76.0
567 76.0
568 67.0
569 86.0
570 71.0
571 63.0
572 80.0
573 82.0
574 73.0
575 83.0
576 66.0
577 67.0
578 61.0
579 59.0
580 64.0
581 61.0
582 75.0
583 78.0
584 72.0
585 80.0
586 73.0
587 78.0
588 71.0
589 66.0
590 73.0
591 76.0
592 71.0
593 79.0
594 75.0
595 67.0
596 73.0
597 75.0
598 70.0
599 80.0
600 65.0
601 57.0
602 60.0
603 58.0
604 56.0
605 62.0
606 60.0
607 56.0
608 59.0
609 54.0
610 51.0
611 50.0
612 57.0
613 54.0
614 61.0
615 51.0
616 59.0
617 52.0
618 62.0
619 63.0
620 58.0
621 56.0
622 64.0
623 61.0
624 74.0
625 66.0
626 71.0
627 69.0
628 72.0
629 78.0
630 71.0
631 72.0
632 77.0
633 80.0
634 69.0
635 71.0
636 66.0
637 70.0
638 75.0
639 75.0
640 73.0
641 69.0
642 71.0
643 74.0
644 62.0
645 70.0
646 68.0
647 73.0
648 70.0
649 66.0
650 66.0
651 61.0
652 67.0
653 66.0
654 72.0
655 73.0
656 73.0
657 76.0
658 69.0
659 71.0
660 71.0
661 67.0
662 76.0
663 75.0
664 71.0
665 74.0
666 68.0
667 63.0
668 63.0
669 66.0
670 62.0
671 70.0
672 68.0
673 65.0
674 67.0
675 57.0
676 71.0
677 64.0
678 66.0
679 70.0
680 72.0
681 72.0
682 69.0
683 65.0
684 70.0
685 66.0
686 77.0
687 76.0
688 67.0
689 70.0
690 75.0
691 67.0
692 68.0
693 70.0
694 61.0
695 71.0
696 70.0
697 71.0
698 65.0
699 63.0
700 68.0
701 65.0
702 63.0
703 66.0
704 60.0
705 68.0
706 61.0
707 66.0
708 59.0
709 54.0
710 61.0
711 64.0
712 59.0
713 67.0
714 67.0
715 59.0
716 65.0
717 67.0
718 62.0
719 72.0
720 69.0
721 66.0
722 68.0
723 58.0
724 69.0
725 62.0
726 64.0
727 65.0
728 67.0
729 63.0
730 64.0
731 59.0
732 67.0
733 60.0
734 71.0
735 66.0
736 61.0
737 63.0
738 72.0
739 64.0
740 68.0
741 66.0
742 61.0
743 67.0
744 75.0
745 72.0
746 78.0
747 68.0
748 79.0
749 72.0
750 74.0
751 75.0
752 81.0
753 70.0
754 78.0
755 66.0
756 73.0
757 70.0
758 77.0
759 69.0
760 67.0
761 62.0
762 78.0
763 74.0
764 74.0
765 69.0
766 67.0
767 66.0
768 66.0
769 67.0
770 68.0
771 64.0
772 69.0
773 64.0
774 70.0
775 71.0
776 72.0
777 61.0
778 73.0
779 61.0
780 73.0
781 71.0
782 73.0
783 64.0
784 69.0
785 62.0
786 70.0
787 67.0
788 70.0
789 60.0
790 65.0
791 58.0
792 84.0
793 77.0
794 83.0
795 78.0
796 80.0
797 82.0
798 80.0
799 77.0
800 83.0
801 75.0
802 76.0
803 71.0
804 84.0
805 82.0
806 88.0
807 79.0
808 83.0
809 76.0
810 78.0
811 79.0
812 74.0
813 72.0
814 76.0
815 73.0
816 77.0
817 69.0
818 72.0
819 70.0
820 68.0
821 74.0
822 73.0
823 69.0
824 72.0
825 67.0
826 64.0
827 63.0
828 69.0
829 66.0
830 73.0
831 63.0
832 71.0
833 64.0
834 66.0
835 67.0
836 62.0
837 60.0
838 68.0
839 65.0
840 73.0
841 70.0
842 72.0
843 62.0
844 73.0
845 66.0
846 64.0
847 65.0
848 67.0
849 63.0
850 64.0
851 59.0
852 78.0
853 71.0
854 82.0
855 77.0
856 72.0
857 74.0
858 71.0
859 63.0
860 67.0
861 65.0
862 60.0
863 66.0
864 75.0
865 72.0
866 89.0
867 79.0
868 78.0
869 71.0
870 81.0
871 70.0
872 87.0
873 84.0
874 80.0
875 76.0
876 72.0
877 62.0
878 73.0
879 80.0
880 81.0
881 74.0
882 70.0
883 71.0
884 79.0
885 75.0
886 68.0
887 63.0
888 85.0
889 74.0
890 82.0
891 83.0
892 88.0
893 81.0
894 76.0
895 72.0
896 73.0
897 77.0
898 85.0
899 80.0
900 88.0
901 81.0
902 83.0
903 78.0
904 79.0
905 81.0
906 73.0
907 69.0
908 71.0
909 64.0
910 77.0
911 70.0
912 80.0
913 75.0
914 70.0
915 67.0
916 67.0
917 69.0
918 81.0
919 73.0
920 72.0
921 70.0
922 79.0
923 85.0
924 78.0
925 85.0
926 84.0
927 76.0
928 74.0
929 78.0
930 89.0
931 87.0
932 82.0
933 79.0
934 67.0
935 73.0
936 68.0
937 65.0
938 71.0
939 61.0
940 72.0
941 65.0
942 69.0
943 70.0
944 76.0
945 65.0
946 73.0
947 61.0
948 83.0
949 80.0
950 87.0
951 79.0
952 77.0
953 72.0
954 76.0
955 72.0
956 72.0
957 67.0
958 65.0
959 64.0
960 64.0
961 61.0
962 78.0
963 68.0
964 67.0
965 60.0
966 76.0
967 65.0
968 82.0
969 79.0
970 79.0
971 75.0
972 71.0
973 61.0
974 72.0
975 79.0
976 80.0
977 73.0
978 63.0
979 64.0
980 82.0
981 71.0
982 71.0
983 59.0
984 74.0
985 63.0
986 81.0
987 82.0
988 81.0
989 77.0
990 69.0
991 58.0
992 66.0
993 73.0
994 78.0
995 66.0
996 73.0
997 70.0
998 78.0
999 70.0
1000 74.0
1001 69.0
1002 62.0
1003 58.0
1004 66.0
1005 63.0
1006 66.0
1007 62.0
1008 65.0
1009 57.0
1010 55.0
1011 55.0
1012 56.0
1013 51.0
1014 66.0
1015 62.0
1016 67.0
1017 62.0
1018 74.0
1019 73.0
1020 67.0
1021 74.0
1022 79.0
1023 75.0
1024 63.0
1025 70.0
1026 74.0
1027 69.0
1028 67.0
1029 67.0
1030 56.0
1031 55.0
1032 61.0
1033 62.0
1034 63.0
1035 59.0
1036 64.0
1037 59.0
1038 71.0
1039 72.0
1040 73.0
1041 62.0
1042 74.0
1043 62.0
1044 80.0
1045 78.0
1046 80.0
1047 71.0
1048 76.0
1049 69.0
1050 69.0
1051 66.0
1052 69.0
1053 59.0
1054 64.0
1055 57.0
1056 65.0
1057 66.0
1058 74.0
1059 70.0
1060 63.0
1061 58.0
1062 82.0
1063 71.0
1064 79.0
1065 80.0
1066 84.0
1067 77.0
1068 72.0
1069 68.0
1070 73.0
1071 77.0
1072 85.0
1073 80.0
1074 69.0
1075 70.0
1076 88.0
1077 77.0
1078 77.0
1079 65.0
1080 76.0
1081 65.0
1082 83.0
1083 84.0
1084 78.0
1085 74.0
1086 66.0
1087 55.0
1088 67.0
1089 74.0
1090 79.0
1091 67.0
1092 79.0
1093 77.0
1094 89.0
1095 80.0
1096 82.0
1097 75.0
1098 72.0
1099 65.0
1100 77.0
1101 75.0
1102 72.0
1103 68.0
1104 67.0
1105 58.0
1106 63.0
1107 66.0
1108 68.0
1109 61.0
1110 64.0
1111 61.0
1112 74.0
1113 64.0
1114 78.0
1115 71.0
1116 69.0
1117 73.0
1118 86.0
1119 83.0
1120 69.0
1121 76.0
1122 76.0
1123 66.0
1124 71.0
1125 74.0
1126 64.0
1127 57.0
1128 84.0
1129 77.0
1130 83.0
1131 78.0
1132 80.0
1133 82.0
1134 90.0
1135 87.0
1136 93.0
1137 85.0
1138 86.0
1139 81.0
1140 85.0
1141 83.0
1142 89.0
1143 80.0
1144 84.0
1145 77.0
1146 85.0
1147 86.0
1148 81.0
1149 79.0
1150 83.0
1151 80.0
1152 77.0
1153 70.0
1154 72.0
1155 67.0
1156 68.0
1157 70.0
1158 79.0
1159 75.0
1160 77.0
1161 70.0
1162 78.0
1163 71.0
1164 81.0
1165 76.0
1166 78.0
1167 75.0
1168 75.0
1169 77.0
1170 73.0
1171 70.0
1172 78.0
1173 70.0
1174 74.0
1175 69.0
1176 69.0
1177 65.0
1178 73.0
1179 70.0
1180 72.0
1181 68.0
1182 71.0
1183 63.0
1184 64.0
1185 64.0
1186 65.0
1187 60.0
1188 73.0
1189 71.0
1190 83.0
1191 74.0
1192 76.0
1193 69.0
1194 77.0
1195 70.0
1196 82.0
1197 80.0
1198 81.0
1199 77.0
1200 76.0
1201 67.0
1202 71.0
1203 74.0
1204 76.0
1205 69.0
1206 66.0
1207 67.0
1208 72.0
1209 70.0
1210 69.0
1211 66.0
1212 71.0
1213 68.0
1214 73.0
1215 74.0
1216 67.0
1217 67.0
1218 63.0
1219 61.0
1220 65.0
1221 68.0
1222 69.0
1223 66.0
1224 61.0
1225 53.0
1226 56.0
1227 54.0
1228 52.0
1229 58.0
1230 67.0
1231 63.0
1232 66.0
1233 61.0
1234 58.0
1235 57.0
1236 58.0
1237 55.0
1238 62.0
1239 52.0
1240 60.0
1241 53.0
1242 69.0
1243 70.0
1244 65.0
1245 63.0
1246 71.0
1247 68.0
1248 66.0
1249 58.0
1250 57.0
1251 55.0
1252 64.0
1253 70.0
1254 68.0
1255 75.0
1256 74.0
1257 66.0
1258 63.0
1259 67.0
1260 78.0
1261 76.0
1262 74.0
1263 71.0
1264 59.0
1265 65.0
1266 62.0
1267 58.0
1268 63.0
1269 58.0
1270 70.0
1271 69.0
1272 58.0
1273 65.0
1274 70.0
1275 66.0
1276 57.0
1277 64.0
1278 68.0
1279 63.0
1280 60.0
1281 60.0
1282 49.0
1283 48.0
1284 54.0
1285 51.0
1286 64.0
1287 54.0
1288 68.0
1289 61.0
1290 58.0
1291 62.0
1292 75.0
1293 72.0
1294 62.0
1295 69.0
1296 69.0
1297 59.0
1298 67.0
1299 70.0
1300 60.0
1301 53.0
1302 62.0
1303 63.0
1304 68.0
1305 66.0
1306 65.0
1307 62.0
1308 55.0
1309 52.0
1310 57.0
1311 58.0
1312 51.0
1313 51.0
1314 47.0
1315 45.0
1316 53.0
1317 56.0
1318 57.0
1319 54.0
1320 59.0
1321 56.0
1322 58.0
1323 48.0
1324 59.0
1325 52.0
1326 56.0
1327 57.0
1328 59.0
1329 55.0
1330 56.0
1331 51.0
1332 64.0
1333 57.0
1334 68.0
1335 63.0
1336 58.0
1337 60.0
1338 53.0
1339 45.0
1340 49.0
1341 47.0
1342 42.0
1343 48.0
1344 60.0
1345 57.0
1346 68.0
1347 58.0
1348 53.0
1349 46.0
1350 66.0
1351 51.0
1352 62.0
1353 59.0
1354 65.0
1355 51.0
1356 53.0
1357 43.0
1358 54.0
1359 55.0
1360 66.0
1361 59.0
1362 51.0
1363 52.0
1364 60.0
1365 56.0
1366 45.0
1367 40.0
1368 60.0
1369 45.0
1370 53.0
1371 54.0
1372 63.0
1373 52.0
1374 47.0
1375 43.0
1376 44.0
1377 48.0
1378 60.0
1379 55.0
1380 74.0
1381 67.0
1382 75.0
1383 70.0
1384 61.0
1385 63.0
1386 65.0
1387 51.0
1388 59.0
1389 52.0
1390 69.0
1391 58.0
1392 62.0
1393 57.0
1394 52.0
1395 55.0
1396 59.0
1397 61.0
1398 51.0
1399 43.0
1400 48.0
1401 46.0
1402 49.0
1403 55.0
1404 58.0
1405 59.0
1406 64.0
1407 56.0
1408 54.0
1409 58.0
1410 63.0
1411 61.0
1412 56.0
1413 59.0
1414 47.0
1415 53.0
1416 70.0
1417 67.0
1418 69.0
1419 59.0
1420 70.0
1421 63.0
1422 61.0
1423 62.0
1424 64.0
1425 60.0
1426 61.0
1427 56.0
1428 75.0
1429 68.0
1430 79.0
1431 74.0
1432 69.0
1433 71.0
1434 68.0
1435 60.0
1436 64.0
1437 62.0
1438 57.0
1439 63.0
1440 65.0
1441 62.0
1442 79.0
1443 69.0
1444 68.0
1445 61.0
1446 71.0
1447 60.0
1448 77.0
1449 74.0
1450 70.0
1451 66.0
1452 62.0
1453 52.0
1454 63.0
1455 70.0
1456 71.0
1457 64.0
1458 62.0
1459 63.0
1460 71.0
1461 67.0
1462 60.0
1463 55.0
1464 77.0
1465 66.0
1466 74.0
1467 75.0
1468 80.0
1469 73.0
1470 68.0
1471 64.0
1472 65.0
1473 69.0
1474 77.0
1475 72.0
1476 85.0
1477 78.0
1478 80.0
1479 75.0
1480 76.0
1481 78.0
1482 70.0
1483 66.0
1484 68.0
1485 61.0
1486 74.0
1487 67.0
1488 77.0
1489 72.0
1490 67.0
1491 64.0
1492 64.0
1493 66.0
1494 62.0
1495 54.0
1496 53.0
1497 51.0
1498 60.0
1499 66.0
1500 59.0
1501 66.0
1502 65.0
1503 57.0
1504 55.0
1505 59.0
1506 70.0
1507 68.0
1508 63.0
1509 60.0
1510 48.0
1511 54.0
1512 67.0
1513 64.0
1514 75.0
1515 65.0
1516 60.0
1517 53.0
1518 68.0
1519 53.0
1520 64.0
1521 61.0
1522 82.0
1523 68.0
1524 70.0
1525 60.0
1526 59.0
1527 60.0
1528 71.0
1529 64.0
1530 61.0
1531 58.0
1532 75.0
1533 65.0
1534 64.0
1535 57.0
1536 68.0
1537 57.0
1538 74.0
1539 71.0
1540 76.0
1541 72.0
1542 68.0
1543 58.0
1544 53.0
1545 60.0
1546 61.0
1547 54.0
1548 67.0
1549 52.0
1550 70.0
1551 59.0
1552 73.0
1553 62.0
1554 80.0
1555 65.0
1556 69.0
1557 73.0
1558 70.0
1559 66.0
1560 72.0
1561 58.0
1562 61.0
1563 57.0
1564 66.0
1565 62.0
1566 65.0
1567 51.0
1568 54.0
1569 64.0
1570 54.0
1571 44.0
1572 65.0
1573 66.0
1574 66.0
1575 73.0
1576 55.0
1577 62.0
1578 62.0
1579 63.0
1580 67.0
1581 73.0
1582 66.0
1583 60.0
1584 56.0
1585 57.0
1586 65.0
1587 61.0
1588 50.0
1589 45.0
1590 66.0
1591 51.0
1592 59.0
1593 60.0
1594 75.0
1595 64.0
1596 59.0
1597 55.0
1598 48.0
1599 52.0
1600 64.0
1601 59.0
1602 62.0
1603 63.0
1604 71.0
1605 67.0
1606 60.0
1607 55.0
1608 72.0
1609 61.0
1610 69.0
1611 70.0
1612 81.0
1613 74.0
1614 69.0
1615 65.0
1616 54.0
1617 58.0
1618 66.0
1619 61.0
1620 71.0
1621 56.0
1622 74.0
1623 63.0
1624 71.0
1625 60.0
1626 78.0
1627 63.0
1628 64.0
1629 68.0
1630 69.0
1631 65.0
1632 74.0
1633 63.0
1634 68.0
1635 61.0
1636 74.0
1637 67.0
1638 72.0
1639 61.0
1640 58.0
1641 62.0
1642 58.0
1643 54.0
1644 59.0
1645 63.0
1646 69.0
1647 73.0
1648 55.0
1649 59.0
1650 65.0
1651 69.0
1652 71.0
1653 71.0
1654 66.0
1655 66.0
1656 74.0
1657 67.0
1658 75.0
1659 70.0
1660 61.0
1661 63.0
1662 75.0
1663 61.0
1664 69.0
1665 62.0
1666 70.0
1667 59.0
1668 63.0
1669 58.0
1670 59.0
1671 62.0
1672 66.0
1673 68.0
1674 74.0
1675 67.0
1676 69.0
1677 64.0
1678 65.0
1679 67.0
1680 69.0
1681 65.0
1682 67.0
1683 60.0
1684 70.0
1685 63.0
1686 73.0
1687 68.0
1688 59.0
1689 56.0
1690 56.0
1691 58.0
1692 65.0
1693 51.0
1694 54.0
1695 50.0
1696 59.0
1697 55.0
1698 58.0
1699 44.0
1700 53.0
1701 63.0
1702 56.0
1703 46.0
1704 63.0
1705 52.0
1706 57.0
1707 50.0
1708 69.0
1709 62.0
1710 67.0
1711 56.0
1712 62.0
1713 66.0
1714 61.0
1715 57.0
1716 56.0
1717 59.0
1718 57.0
1719 54.0
1720 52.0
1721 49.0
1722 47.0
1723 50.0
1724 59.0
1725 53.0
1726 55.0
1727 61.0
1728 67.0
1729 59.0
1730 64.0
1731 62.0
1732 65.0
1733 71.0
1734 68.0
1735 69.0
1736 74.0
1737 66.0
1738 59.0
1739 63.0
1740 68.0
1741 66.0
1742 75.0
1743 78.0
1744 66.0
1745 72.0
1746 63.0
1747 55.0
1748 54.0
1749 52.0
1750 61.0
1751 67.0
1752 58.0
1753 65.0
1754 64.0
1755 56.0
1756 55.0
1757 59.0
1758 70.0
1759 68.0
1760 71.0
1761 68.0
1762 56.0
1763 62.0
1764 70.0
1765 71.0
1766 71.0
1767 78.0
1768 64.0
1769 71.0
1770 71.0
1771 72.0
1772 70.0
1773 76.0
1774 68.0
1775 62.0
1776 60.0
1777 64.0
1778 70.0
1779 74.0
1780 66.0
1781 70.0
1782 76.0
1783 80.0
1784 75.0
1785 75.0
1786 73.0
1787 73.0
1788 68.0
1789 71.0
1790 69.0
1791 66.0
1792 68.0
1793 65.0
1794 63.0
1795 66.0
1796 59.0
1797 53.0
1798 59.0
1799 65.0
1800 73.0
1801 70.0
1802 76.0
1803 66.0
1804 77.0
1805 70.0
1806 69.0
1807 70.0
1808 76.0
1809 73.0
1810 77.0
1811 74.0
1812 81.0
1813 71.0
1814 66.0
1815 62.0
1816 62.0
1817 55.0
1818 68.0
1819 65.0
1820 76.0
1821 66.0
1822 61.0
1823 54.0
1824 69.0
1825 54.0
1826 65.0
1827 62.0
1828 72.0
1829 58.0
1830 60.0
1831 50.0
1832 61.0
1833 62.0
1834 73.0
1835 66.0
1836 69.0
1837 70.0
1838 77.0
1839 62.0
1840 74.0
1841 59.0
1842 66.0
1843 67.0
1844 81.0
1845 65.0
1846 62.0
1847 78.0
1848 88.0
1849 85.0
1850 88.0
1851 74.0
1852 83.0
1853 69.0
1854 72.0
1855 69.0
1856 87.0
1857 76.0
1858 66.0
1859 77.0
1860 65.0
1861 61.0
1862 61.0
1863 62.0
1864 76.0
1865 77.0
1866 77.0
1867 73.0
1868 72.0
1869 77.0
1870 70.0
1871 65.0
1872 62.0
1873 59.0
1874 65.0
1875 55.0
1876 66.0
1877 59.0
1878 63.0
1879 64.0
1880 70.0
1881 67.0
1882 77.0
1883 74.0
1884 81.0
1885 71.0
1886 70.0
1887 66.0
1888 66.0
1889 59.0
1890 62.0
1891 59.0
1892 76.0
1893 66.0
1894 65.0
1895 58.0
1896 74.0
1897 63.0
1898 80.0
1899 77.0
1900 77.0
1901 73.0
1902 69.0
1903 59.0
1904 70.0
1905 77.0
1906 78.0
1907 71.0
1908 58.0
1909 59.0
1910 77.0
1911 66.0
1912 69.0
1913 58.0
1914 76.0
1915 77.0
1916 76.0
1917 64.0
1918 61.0
1919 73.0
1920 77.0
1921 74.0
1922 82.0
1923 78.0
1924 66.0
1925 62.0
1926 70.0
1927 67.0
1928 70.0
1929 69.0
1930 59.0
1931 60.0
1932 54.0
1933 50.0
1934 55.0
1935 62.0
1936 55.0
1937 62.0
1938 67.0
1939 63.0
1940 51.0
1941 62.0
1942 55.0
1943 44.0
1944 64.0
1945 61.0
1946 72.0
1947 62.0
1948 57.0
1949 50.0
1950 65.0
1951 50.0
1952 61.0
1953 58.0
1954 79.0
1955 65.0
1956 67.0
1957 57.0
1958 56.0
1959 57.0
1960 68.0
1961 61.0
1962 69.0
1963 66.0
1964 83.0
1965 73.0
1966 72.0
1967 65.0
1968 76.0
1969 65.0
1970 82.0
1971 79.0
1972 84.0
1973 80.0
1974 76.0
1975 66.0
1976 61.0
1977 68.0
1978 69.0
1979 62.0
1980 70.0
1981 55.0
1982 73.0
1983 62.0
1984 76.0
1985 65.0
1986 83.0
1987 68.0
1988 72.0
1989 76.0
1990 73.0
1991 69.0
1992 79.0
1993 65.0
1994 68.0
1995 64.0
1996 73.0
1997 69.0
1998 72.0
1999 58.0
2000 61.0
2001 71.0
2002 61.0
2003 51.0
2004 72.0
2005 73.0
2006 73.0
2007 80.0
2008 62.0
2009 69.0
2010 69.0
2011 70.0
2012 74.0
2013 80.0
2014 73.0
2015 67.0
2016 68.0
2017 69.0
2018 76.0
2019 61.0
2020 68.0
2021 53.0
2022 60.0
2023 61.0
2024 87.0
2025 71.0
2026 60.0
2027 76.0
2028 63.0
2029 64.0
2030 82.0
2031 71.0
2032 74.0
2033 63.0
2034 81.0
2035 82.0
2036 82.0
2037 70.0
2038 55.0
2039 67.0
2040 68.0
2041 53.0
2042 71.0
2043 60.0
2044 79.0
2045 68.0
2046 86.0
2047 71.0
2048 71.0
2049 75.0
2050 76.0
2051 72.0
2052 86.0
2053 70.0
2054 75.0
2055 74.0
2056 59.0
2057 74.0
2058 71.0
2059 71.0
2060 56.0
2061 67.0
2062 72.0
2063 83.0
2064 78.0
2065 75.0
2066 78.0
2067 64.0
2068 73.0
2069 59.0
2070 62.0
2071 59.0
2072 78.0
2073 67.0
2074 63.0
2075 74.0
2076 67.0
2077 64.0
2078 72.0
2079 68.0
2080 67.0
2081 63.0
2082 71.0
2083 68.0
2084 67.0
2085 66.0
2086 52.0
2087 53.0
2088 62.0
2089 48.0
2090 51.0
2091 47.0
2092 67.0
2093 63.0
2094 66.0
2095 52.0
2096 56.0
2097 66.0
2098 63.0
2099 53.0
2100 71.0
2101 55.0
2102 66.0
2103 65.0
2104 55.0
2105 70.0
2106 60.0
2107 55.0
2108 45.0
2109 45.0
2110 56.0
2111 61.0
2112 71.0
2113 67.0
2114 67.0
2115 68.0
2116 66.0
2117 67.0
2118 67.0
2119 63.0
2120 67.0
2121 72.0
2122 79.0
2123 74.0
2124 56.0
2125 52.0
2126 57.0
2127 64.0
2128 56.0
2129 63.0
2130 68.0
2131 64.0
2132 52.0
2133 63.0
2134 64.0
2135 53.0
2136 67.0
2137 68.0
2138 68.0
2139 75.0
2140 72.0
2141 79.0
2142 79.0
2143 80.0
2144 73.0
2145 79.0
2146 75.0
2147 69.0
2148 68.0
2149 68.0
2150 63.0
2151 74.0
2152 68.0
2153 79.0
2154 72.0
2155 67.0
2156 61.0
2157 61.0
2158 56.0
2159 61.0
2160 63.0
2161 64.0
2162 65.0
2163 66.0
2164 62.0
2165 63.0
2166 64.0
2167 65.0
2168 71.0
2169 71.0
2170 56.0
2171 56.0
2172 56.0
2173 57.0
2174 65.0
2175 50.0
2176 62.0
2177 47.0
2178 55.0
2179 56.0
2180 64.0
2181 48.0
2182 49.0
2183 65.0
2184 66.0
2185 67.0
2186 74.0
2187 59.0
2188 73.0
2189 58.0
2190 65.0
2191 66.0
2192 75.0
2193 59.0
2194 60.0
2195 76.0
2196 82.0
2197 81.0
2198 75.0
2199 65.0
2200 75.0
2201 66.0
2202 55.0
2203 54.0
2204 64.0
2205 70.0
2206 64.0
2207 71.0
2208 58.0
2209 59.0
2210 60.0
2211 61.0
2212 68.0
2213 69.0
2214 70.0
2215 71.0
2216 77.0
2217 77.0
2218 66.0
2219 66.0
2220 62.0
2221 63.0
2222 71.0
2223 60.0
2224 79.0
2225 68.0
2226 76.0
2227 77.0
2228 81.0
2229 69.0
2230 70.0
2231 82.0
2232 61.0
2233 62.0
2234 80.0
2235 69.0
2236 68.0
2237 57.0
2238 75.0
2239 76.0
2240 70.0
2241 58.0
2242 59.0
2243 71.0
2244 77.0
2245 87.0
2246 70.0
2247 75.0
2248 70.0
2249 65.0
2250 50.0
2251 60.0
2252 55.0
2253 72.0
2254 55.0
2255 62.0
2256 56.0
2257 57.0
2258 65.0
2259 50.0
2260 66.0
2261 51.0
2262 59.0
2263 60.0
2264 75.0
2265 59.0
2266 48.0
2267 64.0
2268 67.0
2269 68.0
2270 76.0
2271 65.0
2272 77.0
2273 66.0
2274 74.0
2275 75.0
2276 86.0
2277 74.0
2278 59.0
2279 71.0
2280 73.0
2281 58.0
2282 76.0
2283 65.0
2284 73.0
2285 62.0
2286 80.0
2287 65.0
2288 66.0
2289 70.0
2290 71.0
2291 67.0
2292 75.0
2293 69.0
2294 75.0
2295 73.0
2296 59.0
2297 63.0
2298 64.0
2299 74.0
2300 60.0
2301 70.0
2302 76.0
2303 76.0
2304 71.0
2305 72.0
2306 79.0
2307 64.0
2308 71.0
2309 56.0
2310 63.0
2311 64.0
2312 90.0
2313 74.0
2314 63.0
2315 79.0
2316 60.0
2317 61.0
2318 79.0
2319 68.0
2320 71.0
2321 60.0
2322 78.0
2323 79.0
2324 79.0
2325 67.0
2326 52.0
2327 64.0
2328 67.0
2329 52.0
2330 70.0
2331 59.0
2332 78.0
2333 67.0
2334 85.0
2335 70.0
2336 70.0
2337 74.0
2338 75.0
2339 71.0
2340 80.0
2341 64.0
2342 69.0
2343 68.0
2344 53.0
2345 68.0
2346 69.0
2347 69.0
2348 54.0
2349 65.0
2350 70.0
2351 81.0
2352 81.0
2353 80.0
2354 74.0
2355 64.0
2356 84.0
2357 75.0
2358 70.0
2359 80.0
2360 74.0
2361 79.0
2362 73.0
2363 68.0
2364 63.0
2365 57.0
2366 74.0
2367 72.0
2368 64.0
2369 68.0
2370 74.0
2371 58.0
2372 63.0
2373 62.0
2374 54.0
2375 69.0
2376 66.0
2377 65.0
2378 59.0
2379 65.0
2380 69.0
2381 76.0
2382 51.0
2383 61.0
2384 55.0
2385 72.0
2386 54.0
2387 61.0
2388 60.0
2389 70.0
2390 71.0
2391 81.0
2392 77.0
2393 77.0
2394 71.0
2395 71.0
2396 60.0
2397 71.0
2398 67.0
2399 78.0
2400 85.0
2401 84.0
2402 80.0
2403 83.0
2404 81.0
2405 85.0
2406 78.0
2407 79.0
2408 75.0
2409 69.0
2410 74.0
2411 67.0
2412 84.0
2413 84.0
2414 86.0
2415 75.0
2416 89.0
2417 78.0
2418 81.0
2419 80.0
2420 79.0
2421 69.0
2422 83.0
2423 74.0
2424 74.0
2425 73.0
2426 80.0
2427 83.0
2428 75.0
2429 79.0
2430 78.0
2431 73.0
2432 80.0
2433 78.0
2434 79.0
2435 82.0
2436 73.0
2437 78.0
2438 69.0
2439 73.0
2440 72.0
2441 71.0
2442 70.0
2443 80.0
2444 74.0
2445 79.0
2446 78.0
2447 73.0
2448 67.0
2449 68.0
2450 68.0
2451 62.0
2452 63.0
2453 56.0
2454 78.0
2455 73.0
2456 73.0
2457 71.0
2458 74.0
2459 77.0
2460 75.0
2461 64.0
2462 69.0
2463 68.0
2464 63.0
2465 73.0
2466 68.0
2467 62.0
2468 74.0
2469 72.0
2470 67.0
2471 71.0
2472 74.0
2473 74.0
2474 69.0
2475 58.0
2476 74.0
2477 63.0
2478 63.0
2479 68.0
2480 63.0
2481 67.0
2482 63.0
2483 62.0
2484 65.0
2485 54.0
2486 70.0
2487 69.0
2488 59.0
2489 69.0
2490 73.0
2491 57.0
2492 68.0
2493 67.0
2494 57.0
2495 72.0
2496 74.0
2497 73.0
2498 67.0
2499 57.0
2500 77.0
2501 68.0
2502 69.0
2503 79.0
2504 73.0
2505 78.0
2506 72.0
2507 67.0
2508 67.0
2509 61.0
2510 78.0
2511 76.0
2512 68.0
2513 72.0
2514 82.0
2515 66.0
2516 71.0
2517 70.0
2518 62.0
2519 77.0
